HUN,8,6,471
2,92,1,44,5,45,0,84,3,73,4,86
4,7,3,46,1,74,2,49,0,56,5,42
4,62,0,9,3,38,2,12,1,35,5,82
0,73,2,26,3,71,5,67,4,14,1,89
2,7,1,70,3,15,5,79,0,70,4,55
2,42,5,1,4,12,3,94,1,58,0,86
3,39,4,79,0,93,1,18,2,71,5,62
5,77,1,75,3,31,0,48,4,60,2,56
